0 2 8 -1 0 3 6 4 -1 -1 
9 8 3 9 6 9 7 7 -1 -1 
3 3 1 -1 2 3 9 2 1 -1 
7 3 9 0 -1 5 9 2 -1 -1 
6 8 2 -1 8 4 3 8 5 -1 
3 -1 7 6 0 -1 3 5 8 -1 
2 1 0 1 3 7 3 5 -1 -1 
4 5 3 9 3 8 3 5 0 -1 
7 7 8 9 9 2 8 2 9 -1 
9 8 7 0 0 8 0 0 6 -1 
2 1 -1 7 0 6 5 2 8 -1 
4 9 2 4 -1 4 7 3 0 -1 
6 8 6 -1 2 7 3 3 3 -1 
3 5 9 -1 1 0 -1 3 9 -1 
8 0 9 1 3 4 3 6 9 -1 
